Traveling Salesman Problem/TSP_generados/Aleatorio1621103606_16.tsp
NAME: Aleatorio1621103606_16.tsp
COMMENT: Randomly generated scenario
TYPE: TSP
DIMENSION: 16
EDGE_WEIGHT_TYPE: ATT
NODE_COORD_SECTION
1 28.88 35.4
2 21.71 16.03
3 33.96 18.71
4 48.39 36.47
5 18.87 16.37
6 1.87 37.37
7 14.35 30.92
8 8.54 10.4
9 38.63 7.93
10 39.54 2.28
11 23.43 34.45
12 40.53 25.97
13 5.37 37.05
14 27.48 36.69
15 16.47 30.38
16 9.26 18.51
