Traveling Salesman Problem/TSP_generados/Aleatorio1621103606_16.opt.tour
NAME: Aleatorio1621103606_16.opt.tour
COMMENT: Optimal solution for Aleatorio1621103606_16 (156.7926862851675)
TYPE: TOUR
DIMENSION: 16
TOUR_SECTION
1 4 12 3 9 10 2 5 8 16 6 13 7 15 11 14
-1
EOF
